(declare-fun e () String)
(declare-fun c () String)
(declare-fun g () String)
(declare-fun b () String)
(declare-fun d () String)
(declare-fun f () String)
(declare-fun a () String)
(declare-fun h () String)
(assert (= (str.++ f f "d" g "h") (str.++ h h)))
(assert (= (str.++ b e "h" g) (str.++ "h" a "hc" e c)))
(assert (= (str.++ a d b) c))

(check-sat)
